peakDumbCharging = 14800; 
Machine = anon_enum(16); 
machineSpeed = [3700,3700,3700,3700,3700,3700,3700,3700,3700,3700,3700,3700,3700,3700,3700,3700]; 
machineLoad = [3700,3700,3700,3700,3700,3700,3700,3700,3700,3700,3700,3700,3700,3700,3700,3700]; 
Car = anon_enum(21); 
demandCar = [3320,2240,6280,22200,4000,5400,9200,10920,7960,4560,4240,4360,9400,3400,2080,4800,25320,23360,11160,30120,15680]; 
arrivalCar = [85,70,69,67,66,62,60,59,58,55,54,53,50,48,47,47,46,40,40,31,30]; 
departureCar = [87,71,72,75,68,65,68,65,61,59,57,56,54,50,51,50,60,54,48,51,63]; 
